Please solve the following SAT Problem encoded in DIMACS format, only return a single solution assignment without explanations, if there is any: 
p cnf 10 50
-1 3 -9 0
9 -10 -1 0
7 -2 -5 0
9 -5 -1 0
-5 -7 -10 0
7 -1 10 0
4 -5 -1 0
10 9 -6 0
-6 3 -10 0
10 -5 8 0
-7 -3 5 0
6 4 -7 0
9 -2 4 0
4 8 -6 0
4 3 9 0
-1 9 -10 0
-6 -1 9 0
3 10 -1 0
9 -6 3 0
6 9 3 0
-4 -3 10 0
8 10 -2 0
9 -6 4 0
8 -1 9 0
4 -6 -7 0
4 -6 -7 0
8 -5 -1 0
4 3 -2 0
-7 10 3 0
4 10 -7 0
9 -5 4 0
-6 -5 -2 0
-5 2 -1 0
4 7 -2 0
-7 10 9 0
3 -2 10 0
6 -4 -1 0
3 -1 -7 0
-2 10 -5 0
-8 3 9 0
4 -7 8 0
-2 10 -5 0
9 -7 4 0
-3 -2 9 0
-2 8 4 0
8 4 10 0
-1 -6 -7 0
-7 -6 -2 0
10 7 -6 0
9 -6 -2 0

